NAME : kroA100-R-5-1-a.35847.tour
COMMENT : Length = 35847
COMMENT : Found by LKH-3 [Keld Helsgaun] Tue Jul 30 13:14:56 2024
TYPE : TOUR
DIMENSION : 100
TOUR_SECTION
1
49
97
26
65
53
16
94
36
10
72
21
74
59
32
98
23
51
87
12
43
3
41
100
14
85
68
73
64
54
82
33
37
78
30
29
46
34
83
35
86
20
7
9
25
81
69
61
58
67
28
93
47
15
17
84
18
22
70
66
4
19
75
92
8
31
80
56
42
89
40
2
44
50
95
76
13
5
39
96
52
48
71
55
57
27
62
60
77
91
45
11
99
38
24
88
79
90
6
63
-1
EOF
